NAME : A-n5
COMMENT : GVRP
DIMENSION : 5
VEHICLES : 2
GVRP_SETS : 2
CAPACITY : 10
EDGE_WEIGHT_TYPE : EUC_2D
NODE_COORD_SECTION
1 0 0
2 1 1
3 3 3
4 2 2
5 4 4
GVRP_SET_SECTION
1 3 5 -1
2 2 4 -1
DEMAND_SECTION
1 8
2 6
EOF